c uprop, v00.0, 
c reading from data/prog438.c.cnf
c done reading: 0.002136
p cnf 144 616
-51 -69 0
51 69 0
-46 69 0
46 -69 0
51 -63 0
-61 -63 0
-51 61 63 0
-51 -56 61 0
51 -56 -61 0
51 56 61 0
-51 56 -61 0
-52 63 0
-49 -52 0
49 52 -63 0
-48 49 -63 0
-48 -49 63 0
48 49 63 0
48 -49 -63 0
-47 52 0
-44 -47 0
44 47 -52 0
-42 44 -52 0
-42 -44 52 0
42 44 52 0
42 -44 -52 0
47 -67 0
-65 -67 0
-47 65 67 0
-47 65 -71 0
47 -65 -71 0
47 65 71 0
-47 -65 71 0
67 -72 0
-58 -72 0
58 -67 72 0
58 -67 -73 0
-58 67 -73 0
58 67 73 0
-58 -67 73 0
72 -74 0
-54 -74 0
54 -72 74 0
54 -72 -75 0
-54 72 -75 0
54 72 75 0
-54 -72 75 0
69 -76 0
-69 76 0
-61 -69 77 0
61 69 -77 0
61 -77 0
69 -77 0
61 -77 -78 0
69 -77 -78 0
-77 -78 0
-61 77 78 0
-69 77 78 0
61 69 -78 0
-49 -61 79 0
-49 -77 79 0
-61 -77 79 0
49 61 -79 0
49 77 -79 0
61 77 -79 0
49 -79 -80 0
61 -79 -80 0
77 -79 -80 0
-49 79 80 0
-61 79 80 0
-77 79 80 0
-49 -61 -77 80 0
49 61 77 -80 0
-44 -49 81 0
-44 -79 81 0
-49 -79 81 0
44 49 -81 0
44 79 -81 0
49 79 -81 0
44 -81 -82 0
49 -81 -82 0
79 -81 -82 0
-44 81 82 0
-49 81 82 0
-79 81 82 0
-44 -49 -79 82 0
44 49 79 -82 0
-44 -65 83 0
-65 -81 83 0
-44 -81 83 0
44 65 -83 0
65 81 -83 0
44 81 -83 0
-41 65 -83 0
-41 44 -83 0
-41 81 -83 0
41 -65 83 0
41 -44 83 0
41 -81 83 0
41 -44 -65 -81 0
-41 44 65 81 0
40 -58 -65 0
40 -58 -83 0
40 -65 -83 0
-40 58 65 0
-40 58 83 0
-40 65 83 0
-39 -40 58 0
-39 -40 65 0
-39 -40 83 0
39 40 -58 0
39 40 -65 0
39 40 -83 0
39 -58 -65 -83 0
-39 58 65 83 0
38 -54 -58 0
38 -40 -54 0
38 -40 -58 0
-38 54 58 0
-38 40 54 0
-38 40 58 0
-37 -38 54 0
-37 -38 58 0
-37 -38 40 0
37 38 -54 0
37 38 -58 0
37 38 -40 0
37 -40 -54 -58 0
-37 40 54 58 0
54 -68 0
38 -68 0
-38 -54 68 0
-38 -54 -60 0
38 54 -60 0
38 -54 60 0
-38 54 60 0
-43 82 0
43 -82 0
-41 64 -69 0
41 -64 69 0
41 -64 0
-64 69 0
41 -57 -64 0
-57 -64 69 0
-57 -64 0
-41 57 64 0
57 64 -69 0
41 -57 69 0
-39 53 -61 0
-39 53 -64 0
53 -61 -64 0
39 -53 61 0
39 -53 64 0
-53 61 64 0
-36 39 -53 0
-36 -53 61 0
-36 -53 64 0
36 -39 53 0
36 53 -61 0
36 53 -64 0
36 -39 -61 -64 0
-36 39 61 64 0
35 -37 -49 0
35 -37 -53 0
35 -49 -53 0
-35 37 49 0
-35 37 53 0
-35 49 53 0
-34 -35 37 0
-34 -35 49 0
-34 -35 53 0
34 35 -37 0
34 35 -49 0
34 35 -53 0
34 -37 -49 -53 0
-34 37 49 53 0
33 -44 -60 0
33 -35 -60 0
33 -35 -44 0
-33 44 60 0
-33 35 60 0
-33 35 44 0
-32 -33 60 0
-32 -33 44 0
-32 -33 35 0
32 33 -60 0
32 33 -44 0
32 33 -35 0
32 -35 -44 -60 0
-32 35 44 60 0
31 -65 -68 0
31 -33 -68 0
31 -33 -65 0
-31 65 68 0
-31 33 68 0
-31 33 65 0
-30 -31 68 0
-30 -31 65 0
-30 -31 33 0
30 31 -68 0
30 31 -65 0
30 31 -33 0
30 -33 -65 -68 0
-30 33 65 68 0
-29 58 0
-29 31 0
29 -31 -58 0
-28 -31 -58 0
-28 31 58 0
28 31 -58 0
28 -31 58 0
-27 54 0
-27 29 0
27 -29 -54 0
-26 -29 -54 0
-26 29 54 0
26 29 -54 0
26 -29 54 0
-25 -76 0
25 76 0
-24 76 0
24 -76 0
-23 25 0
-23 -78 0
23 -25 78 0
-22 -25 78 0
-22 25 -78 0
22 25 78 0
22 -25 -78 0
-21 23 0
-21 -80 0
21 -23 80 0
-20 -23 80 0
-20 23 -80 0
20 23 80 0
20 -23 -80 0
-19 21 0
-19 -43 0
19 -21 43 0
-18 -21 43 0
-18 21 -43 0
18 21 43 0
18 -21 -43 0
19 -84 0
-57 -84 0
-19 57 84 0
-19 57 -85 0
19 -57 -85 0
19 57 85 0
-19 -57 85 0
84 -86 0
-36 -86 0
36 -84 86 0
36 -84 -87 0
-36 84 -87 0
36 84 87 0
-36 -84 87 0
86 -88 0
-34 -88 0
34 -86 88 0
34 -86 -89 0
-34 86 -89 0
34 86 89 0
-34 -86 89 0
88 -90 0
-32 -90 0
32 -88 90 0
32 -88 -91 0
-32 88 -91 0
32 88 91 0
-32 -88 91 0
90 -92 0
-30 -92 0
30 -90 92 0
30 -90 -93 0
-30 90 -93 0
30 90 93 0
-30 -90 93 0
92 -94 0
-28 -94 0
28 -92 94 0
28 -92 -95 0
-28 92 -95 0
28 92 95 0
-28 -92 95 0
94 -96 0
-26 -96 0
26 -94 96 0
26 -94 -97 0
-26 94 -97 0
26 94 97 0
-26 -94 97 0
96 -98 0
-27 -98 0
27 -96 98 0
27 -96 -99 0
-27 96 -99 0
27 96 99 0
-27 -96 99 0
-100 -102 0
-102 -103 0
100 102 103 0
100 103 -105 0
-100 -103 -105 0
-100 103 105 0
100 -103 105 0
102 -106 0
-106 -107 0
-102 106 107 0
-102 107 -109 0
102 -107 -109 0
102 107 109 0
-102 -107 109 0
106 -110 0
-110 -111 0
-106 110 111 0
-106 111 -113 0
106 -111 -113 0
106 111 113 0
-106 -111 113 0
110 -114 0
-114 -115 0
-110 114 115 0
-110 115 -117 0
110 -115 -117 0
110 115 117 0
-110 -115 117 0
114 -118 0
-118 -119 0
-114 118 119 0
-114 119 -121 0
114 -119 -121 0
114 119 121 0
-114 -119 121 0
118 -122 0
-122 -123 0
-118 122 123 0
-118 123 -125 0
118 -123 -125 0
118 123 125 0
-118 -123 125 0
122 -126 0
-126 -127 0
-122 126 127 0
-122 127 -129 0
122 -127 -129 0
122 127 129 0
-122 -127 129 0
107 -130 0
100 -130 0
-100 -107 130 0
-100 -107 -131 0
100 107 -131 0
100 -107 131 0
-100 107 131 0
-103 -111 132 0
-111 -130 132 0
-103 -130 132 0
103 111 -132 0
111 130 -132 0
103 130 -132 0
111 -132 -133 0
103 -132 -133 0
130 -132 -133 0
-111 132 133 0
-103 132 133 0
-130 132 133 0
-103 -111 -130 133 0
103 111 130 -133 0
-107 -115 134 0
-115 -132 134 0
-107 -132 134 0
107 115 -134 0
115 132 -134 0
107 132 -134 0
115 -134 -135 0
107 -134 -135 0
132 -134 -135 0
-115 134 135 0
-107 134 135 0
-132 134 135 0
-107 -115 -132 135 0
107 115 132 -135 0
-111 -119 136 0
-119 -134 136 0
-111 -134 136 0
111 119 -136 0
119 134 -136 0
111 134 -136 0
119 -136 -137 0
111 -136 -137 0
134 -136 -137 0
-119 136 137 0
-111 136 137 0
-134 136 137 0
-111 -119 -134 137 0
111 119 134 -137 0
-115 -123 138 0
-123 -136 138 0
-115 -136 138 0
115 123 -138 0
123 136 -138 0
115 136 -138 0
123 -138 -139 0
115 -138 -139 0
136 -138 -139 0
-123 138 139 0
-115 138 139 0
-136 138 139 0
-115 -123 -136 139 0
115 123 136 -139 0
-119 -127 140 0
-127 -138 140 0
-119 -138 140 0
119 127 -140 0
127 138 -140 0
119 138 -140 0
127 -140 -141 0
119 -140 -141 0
138 -140 -141 0
-127 140 141 0
-119 140 141 0
-138 140 141 0
-119 -127 -138 141 0
119 127 138 -141 0
-70 123 0
-70 140 0
70 -123 -140 0
-62 -123 -140 0
-62 123 140 0
62 -123 140 0
62 123 -140 0
-50 127 0
-50 70 0
50 -70 -127 0
-45 -70 -127 0
-45 70 127 0
45 70 -127 0
45 -70 127 0
-66 -100 0
-66 -103 0
66 100 103 0
-59 100 103 0
-59 -100 -103 0
59 -100 103 0
59 100 -103 0
-55 66 0
-55 -131 0
55 -66 131 0
-66 -101 131 0
66 -101 -131 0
66 101 131 0
-66 101 -131 0
55 -104 0
-104 -133 0
-55 104 133 0
-55 -108 133 0
55 -108 -133 0
55 108 133 0
-55 108 -133 0
104 -112 0
-112 -135 0
-104 112 135 0
-104 -116 135 0
104 -116 -135 0
104 116 135 0
-104 116 -135 0
112 -120 0
-120 -137 0
-112 120 137 0
-112 -124 137 0
112 -124 -137 0
112 124 137 0
-112 124 -137 0
120 -128 0
-128 -139 0
-120 128 139 0
-120 139 -142 0
120 -139 -142 0
120 139 142 0
-120 -139 142 0
128 -143 0
-141 -143 0
-128 141 143 0
-128 141 -144 0
128 -141 -144 0
128 141 144 0
-128 -141 144 0
-17 143 0
-17 -62 0
17 62 -143 0
-16 62 -143 0
-16 -62 143 0
16 62 143 0
16 -62 -143 0
-15 17 0
-15 -45 0
15 -17 45 0
-14 -17 45 0
-14 17 -45 0
14 17 45 0
14 -17 -45 0
-13 15 0
-13 -50 0
13 -15 50 0
-12 -15 50 0
-12 15 -50 0
12 15 50 0
12 -15 -50 0
-11 76 0
-11 100 0
11 -76 -100 0
-76 100 0
76 -100 0
10 -78 -103 0
10 -11 -78 0
10 -11 -103 0
-10 78 103 0
-10 11 78 0
-10 11 103 0
10 -78 0
10 -103 0
10 -11 0
-11 -78 -103 0
9 -80 -131 0
9 -10 -80 0
9 -10 -131 0
-9 80 131 0
-9 10 80 0
-9 10 131 0
-9 80 0
-9 131 0
-9 10 0
10 80 131 0
8 -43 -133 0
8 -9 -43 0
8 -9 -133 0
-8 43 133 0
-8 9 43 0
-8 9 133 0
-8 43 0
-8 133 0
-8 9 0
9 43 133 0
7 -57 -135 0
7 -8 -57 0
7 -8 -135 0
-7 57 135 0
-7 8 57 0
-7 8 135 0
-7 57 0
-7 135 0
-7 8 0
8 57 135 0
6 -36 -137 0
6 -7 -36 0
6 -7 -137 0
-6 36 137 0
-6 7 36 0
-6 7 137 0
6 -36 0
6 -137 0
6 -7 0
-7 -36 -137 0
5 -34 -139 0
5 -6 -34 0
5 -6 -139 0
-5 34 139 0
-5 6 34 0
-5 6 139 0
5 -34 0
5 -139 0
5 -6 0
-6 -34 -139 0
4 -32 -141 0
4 -5 -32 0
4 -5 -141 0
-4 32 141 0
-4 5 32 0
-4 5 141 0
4 -32 0
4 -141 0
4 -5 0
-5 -32 -141 0
3 -30 -62 0
3 -4 -30 0
3 -4 -62 0
-3 30 62 0
-3 4 30 0
-3 4 62 0
3 -30 0
3 -62 0
3 -4 0
-4 -30 -62 0
2 -28 -45 0
2 -3 -28 0
2 -3 -45 0
-2 28 45 0
-2 3 28 0
-2 3 45 0
2 -28 0
2 -45 0
2 -3 0
-3 -28 -45 0
1 -26 -50 0
1 -2 -26 0
1 -2 -50 0
-1 26 50 0
-1 2 26 0
-1 2 50 0
1 -26 0
1 -50 0
1 -2 0
-2 -26 -50 0
-1 -27 0
1 -27 0
-1 27 0
